p tw 24 39
0 1
0 22
0 23
1 10
1 9
1 8
1 7
1 3
2 3
2 20
2 21
3 9
3 8
3 10
3 7
4 5
4 6
4 8
5 6
7 8
7 17
7 9
7 10
8 10
8 9
9 11
9 10
10 14
11 12
11 13
12 13
14 15
14 16
15 16
17 18
17 19
18 19
20 21
22 23
